This is Ipopt version 3.12.13, running with linear solver ma57.

Number of nonzeros in equality constraint Jacobian...:        0
Number of nonzeros in inequality constraint Jacobian.:    32544
Number of nonzeros in Lagrangian Hessian.............:       21

Total number of variables............................:        6
                     variables with only lower bounds:        0
                variables with lower and upper bounds:        6
                     variables with only upper bounds:        0
Total number of equality constraints.................:        0
Total number of inequality constraints...............:     5424
        inequality constraints with only lower bounds:        0
   inequality constraints with lower and upper bounds:        0
        inequality constraints with only upper bounds:     5424

iter    objective    inf_pr   inf_du lg(mu)  ||d||  lg(rg) alpha_du alpha_pr  ls
   0  8.0937970e-03 0.00e+00 7.36e+00   0.0 0.00e+00    -  0.00e+00 0.00e+00   0
   1  8.0856392e-03 0.00e+00 1.22e-02  -5.6 4.05e-04    -  9.88e-01 1.00e+00f  1
   2  1.1184843e-02 0.00e+00 1.45e-02  -1.6 8.63e+00    -  1.82e-02 1.51e-02f  1
   3  1.1560909e-02 0.00e+00 3.87e-01  -1.6 3.88e+00    -  7.89e-02 1.17e-02f  1
   4  1.2158928e-02 0.00e+00 5.23e+00  -1.6 4.80e-01    -  9.93e-01 1.00e-01f  1
   5  1.2082654e-02 0.00e+00 2.26e-02  -1.6 5.76e-02    -  1.00e+00 1.00e+00f  1
   6  1.2063469e-02 0.00e+00 2.74e-05  -2.4 4.59e-03    -  1.00e+00 1.00e+00h  1
   7  1.1940761e-02 0.00e+00 1.11e-04  -3.7 1.13e-02    -  1.00e+00 1.00e+00h  1
   8  1.0919721e-02 0.00e+00 3.44e-02  -5.5 8.56e-02    -  3.99e-01 1.00e+00h  1
   9  9.4078644e-03 0.00e+00 1.52e-02  -5.5 2.21e-01    -  5.59e-01 9.82e-01h  1
iter    objective    inf_pr   inf_du lg(mu)  ||d||  lg(rg) alpha_du alpha_pr  ls
  10  5.2023421e-03 0.00e+00 3.21e-03  -5.5 2.62e-01    -  4.87e-01 9.60e-01h  1
  11  7.2513168e-03 0.00e+00 3.05e-04  -4.6 1.80e-01    -  9.44e-01 1.00e+00h  1
  12  6.1530064e-03 0.00e+00 2.09e-05  -4.7 8.35e-02    -  1.00e+00 1.00e+00h  1
  13  5.1680383e-03 0.00e+00 8.19e-05  -5.0 5.66e-02    -  9.97e-01 1.00e+00h  1
  14  4.9103478e-03 0.00e+00 4.31e-06  -5.3 2.65e-02    -  1.00e+00 1.00e+00h  1
  15  4.7730412e-03 0.00e+00 9.17e-05  -5.9 1.77e-02    -  9.16e-01 1.00e+00h  1
  16  4.7683853e-03 0.00e+00 3.47e-05  -7.0 6.09e-03    -  1.00e+00 9.98e-01h  1
  17  4.7680924e-03 0.00e+00 9.99e-11  -7.7 2.93e-03    -  1.00e+00 1.00e+00h  1
  18  4.7680477e-03 0.00e+00 4.08e-12  -9.7 1.02e-03    -  1.00e+00 1.00e+00h  1

Number of Iterations....: 18

                                   (scaled)                 (unscaled)
Objective...............:   4.7680476851146361e-03    4.7680476851146361e-03
Dual infeasibility......:   4.0767528242113826e-12    4.0767528242113826e-12
Constraint violation....:   0.0000000000000000e+00    0.0000000000000000e+00
Complementarity.........:   3.4905987479595561e-08    3.4905987479595561e-08
Overall NLP error.......:   3.4905987479595561e-08    3.4905987479595561e-08


Number of objective function evaluations             = 19
Number of objective gradient evaluations             = 19
Number of equality constraint evaluations            = 0
Number of inequality constraint evaluations          = 19
Number of equality constraint Jacobian evaluations   = 0
Number of inequality constraint Jacobian evaluations = 19
Number of Lagrangian Hessian evaluations             = 18
Total CPU secs in IPOPT (w/o function evaluations)   =      0.062
Total CPU secs in NLP function evaluations           =      0.149

EXIT: Optimal Solution Found.
